words_train/words_222_SAT.qaiger
aag 94 24 0 1 70
30
22
4
8
38
26
28
2
6
24
32
34
42
46
36
44
18
48
16
20
12
10
14
40
189
50 21 19
52 50 23
54 52 25
56 54 27
58 56 29
60 58 31
62 59 30
64 63 61
66 5 2
68 67 5
70 68 7
72 70 9
74 72 11
76 74 13
78 76 15
80 77 14
82 81 79
84 83 64
86 55 26
88 87 57
90 73 10
92 91 75
94 93 88
96 57 28
98 97 59
100 75 12
102 101 77
104 103 98
106 92 89
108 53 24
110 109 55
112 71 8
114 113 73
116 114 111
118 115 110
120 51 22
122 121 53
124 19 2
126 20 4
128 126 125
130 67 51
132 130 129
134 133 123
136 132 122
138 69 6
140 139 71
142 140 137
144 143 135
146 145 119
148 147 117
150 148 107
152 151 105
154 152 95
156 82 65
158 102 99
160 159 157
162 160 155
164 163 85
166 33 16
168 32 17
170 169 167
172 171 60
174 170 61
176 175 173
178 176 78
180 177 79
182 181 179
184 182 164
186 183 165
188 187 185
i0 2 y[6]
i1 2 y[2]
i2 1 x[1]
i3 1 x[3]
i4 2 z[2]
i5 2 y[4]
i6 2 y[5]
i7 1 x[0]
i8 1 x[2]
i9 2 y[3]
i10 2 y[7]
i11 2 z[0]
i12 2 z[4]
i13 2 z[6]
i14 2 z[1]
i15 2 z[5]
i16 2 y[0]
i17 2 z[7]
i18 1 x[7]
i19 2 y[1]
i20 1 x[5]
i21 1 x[4]
i22 1 x[6]
i23 2 z[3]
o0 bv[0]
c
simplified
  <=
    and
      2 y
      or
        2 z
        2 y
    subtract
      1 x
      1
