words_train/words_222_SAT.qaiger.qdimacs
p cnf 94 211
a 1 2 3 4 5 6 7 8 0
e 9 10 11 12 13 14 15 16 17 18 19 20 21 22 23 24 25 26 27 28 29 30 31 32 33 34 35 36 37 38 39 40 41 42 43 44 45 46 47 48 49 50 51 52 53 54 55 56 57 58 59 60 61 62 63 64 65 66 67 68 69 70 71 72 73 74 75 76 77 78 79 80 81 82 83 84 85 86 87 88 89 90 91 92 93 94 0
10 9 25 0
-10 -25 0
-9 -25 0
-25 11 26 0
25 -26 0
-11 -26 0
-26 12 27 0
26 -27 0
-12 -27 0
-27 13 28 0
27 -28 0
-13 -28 0
-28 14 29 0
28 -29 0
-14 -29 0
-29 15 30 0
29 -30 0
-15 -30 0
29 -15 31 0
-29 -31 0
15 -31 0
31 30 32 0
-31 -32 0
-30 -32 0
2 -1 33 0
-2 -33 0
1 -33 0
33 2 34 0
-33 -34 0
-2 -34 0
-34 3 35 0
34 -35 0
-3 -35 0
-35 4 36 0
35 -36 0
-4 -36 0
-36 5 37 0
36 -37 0
-5 -37 0
-37 6 38 0
37 -38 0
-6 -38 0
-38 7 39 0
38 -39 0
-7 -39 0
38 -7 40 0
-38 -40 0
7 -40 0
40 39 41 0
-40 -41 0
-39 -41 0
41 -32 42 0
-41 -42 0
32 -42 0
27 -13 43 0
-27 -43 0
13 -43 0
43 28 44 0
-43 -44 0
-28 -44 0
36 -5 45 0
-36 -45 0
5 -45 0
45 37 46 0
-45 -46 0
-37 -46 0
46 -44 47 0
-46 -47 0
44 -47 0
28 -14 48 0
-28 -48 0
14 -48 0
48 29 49 0
-48 -49 0
-29 -49 0
37 -6 50 0
-37 -50 0
6 -50 0
50 38 51 0
-50 -51 0
-38 -51 0
51 -49 52 0
-51 -52 0
49 -52 0
-46 44 53 0
46 -53 0
-44 -53 0
26 -12 54 0
-26 -54 0
12 -54 0
54 27 55 0
-54 -55 0
-27 -55 0
35 -4 56 0
-35 -56 0
4 -56 0
56 36 57 0
-56 -57 0
-36 -57 0
-57 55 58 0
57 -58 0
-55 -58 0
57 -55 59 0
-57 -59 0
55 -59 0
25 -11 60 0
-25 -60 0
11 -60 0
60 26 61 0
-60 -61 0
-26 -61 0
9 -1 62 0
-9 -62 0
1 -62 0
-10 -2 63 0
10 -63 0
2 -63 0
-63 62 64 0
63 -64 0
-62 -64 0
33 25 65 0
-33 -65 0
-25 -65 0
-65 64 66 0
65 -66 0
-64 -66 0
66 61 67 0
-66 -67 0
-61 -67 0
-66 -61 68 0
66 -68 0
61 -68 0
34 -3 69 0
-34 -69 0
3 -69 0
69 35 70 0
-69 -70 0
-35 -70 0
-70 68 71 0
70 -71 0
-68 -71 0
71 67 72 0
-71 -72 0
-67 -72 0
72 59 73 0
-72 -73 0
-59 -73 0
73 58 74 0
-73 -74 0
-58 -74 0
-74 53 75 0
74 -75 0
-53 -75 0
75 52 76 0
-75 -76 0
-52 -76 0
-76 47 77 0
76 -77 0
-47 -77 0
-41 32 78 0
41 -78 0
-32 -78 0
-51 49 79 0
51 -79 0
-49 -79 0
79 78 80 0
-79 -80 0
-78 -80 0
-80 77 81 0
80 -81 0
-77 -81 0
81 42 82 0
-81 -82 0
-42 -82 0
16 -8 83 0
-16 -83 0
8 -83 0
-16 8 84 0
16 -84 0
-8 -84 0
84 83 85 0
-84 -85 0
-83 -85 0
85 -30 86 0
-85 -86 0
30 -86 0
-85 30 87 0
85 -87 0
-30 -87 0
87 86 88 0
-87 -88 0
-86 -88 0
-88 -39 89 0
88 -89 0
39 -89 0
88 39 90 0
-88 -90 0
-39 -90 0
90 89 91 0
-90 -91 0
-89 -91 0
-91 -82 92 0
91 -92 0
82 -92 0
91 82 93 0
-91 -93 0
-82 -93 0
93 92 94 0
-93 -94 0
-92 -94 0
-94 0
